# Objective value = 28
X_0_0 0
Y_0_0 0
X_0_1 1
Y_0_1 4
X_0_2 1
Y_0_2 5
X_0_3 0
Y_0_3 0
X_1_0 1
Y_1_0 3
X_1_1 0
Y_1_1 0
X_1_2 0
Y_1_2 0
X_1_3 1
Y_1_3 3
X_2_0 0
Y_2_0 0
X_2_1 1
Y_2_1 4
X_2_2 0
Y_2_2 0
X_2_3 0
Y_2_3 0
X_3_0 1
Y_3_0 4
X_3_1 0
Y_3_1 0
X_3_2 1
Y_3_2 4
X_3_3 0
Y_3_3 0
temp1_0 1
temp1_1 1
temp1_2 1
temp1_3 1
Obj 28
